%NProcShared=4
%Mem=2GB
#P  PBEPBE/def2svp pop=NBORead  scf=tight

Single Point computation for reaction coordinate: -2.08776

0 1
1    1.625118    -0.246365    -0.000000
16    -0.729632    -0.680632    0.000000
7    0.012344    0.749272    0.000000
8    1.345497    0.719911    -0.000000


$nbo bndidx $end

--Link1--
%NProcShared=4
%Mem=2GB
#P  PBEPBE/def2svp pop=NBORead  scf=tight

Single Point computation for reaction coordinate: -2.03551

0 1
1    1.615402    -0.252122    -0.000000
16    -0.727193    -0.679861    0.000000
7    0.010329    0.751791    0.000000
8    1.342982    0.716558    0.000000


$nbo bndidx $end

--Link1--
%NProcShared=4
%Mem=2GB
#P  PBEPBE/def2svp pop=NBORead  scf=tight

Single Point computation for reaction coordinate: -1.98326

0 1
1    1.605676    -0.257658    -0.000000
16    -0.724758    -0.679059    0.000000
7    0.008267    0.754251    0.000000
8    1.340524    0.713133    0.000000


$nbo bndidx $end

--Link1--
%NProcShared=4
%Mem=2GB
#P  PBEPBE/def2svp pop=NBORead  scf=tight

Single Point computation for reaction coordinate: -1.93101

0 1
1    1.595646    -0.263687    0.000000
16    -0.722341    -0.678333    0.000000
7    0.006278    0.756879    0.000000
8    1.338058    0.709827    -0.000000


$nbo bndidx $end

--Link1--
%NProcShared=4
%Mem=2GB
#P  PBEPBE/def2svp pop=NBORead  scf=tight

Single Point computation for reaction coordinate: -1.87878

0 1
1    1.587592    -0.269634    -0.000000
16    -0.719903    -0.677537    0.000000
7    0.004183    0.759474    0.000000
8    1.335398    0.706302    0.000000


$nbo bndidx $end

--Link1--
%NProcShared=4
%Mem=2GB
#P  PBEPBE/def2svp pop=NBORead  scf=tight

Single Point computation for reaction coordinate: -1.82666

0 1
1    1.577332    -0.274036    0.000000
16    -0.717366    -0.676903    0.000000
7    0.002156    0.762189    0.000000
8    1.332890    0.703155    0.000000


$nbo bndidx $end

--Link1--
%NProcShared=4
%Mem=2GB
#P  PBEPBE/def2svp pop=NBORead  scf=tight

Single Point computation for reaction coordinate: -1.77467

0 1
1    1.566184    -0.280844    -0.000000
16    -0.715115    -0.676284    0.000000
7    0.000369    0.764806    0.000000
8    1.330462    0.699979    0.000000


$nbo bndidx $end

--Link1--
%NProcShared=4
%Mem=2GB
#P  PBEPBE/def2svp pop=NBORead  scf=tight

Single Point computation for reaction coordinate: -1.7226

0 1
1    1.555157    -0.284088    0.000000
16    -0.712822    -0.675720    0.000000
7    -0.001457    0.767774    0.000000
8    1.328157    0.696434    -0.000000


$nbo bndidx $end

--Link1--
%NProcShared=4
%Mem=2GB
#P  PBEPBE/def2svp pop=NBORead  scf=tight

Single Point computation for reaction coordinate: -1.67038

0 1
1    1.544714    -0.290406    -0.000000
16    -0.710526    -0.675199    0.000000
7    -0.003155    0.770799    -0.000000
8    1.325709    0.693146    0.000000


$nbo bndidx $end

--Link1--
%NProcShared=4
%Mem=2GB
#P  PBEPBE/def2svp pop=NBORead  scf=tight

Single Point computation for reaction coordinate: -1.61815

0 1
1    1.533778    -0.295530    0.000000
16    -0.708287    -0.674767    0.000000
7    -0.004737    0.774007    -0.000000
8    1.323306    0.689796    -0.000000


$nbo bndidx $end

--Link1--
%NProcShared=4
%Mem=2GB
#P  PBEPBE/def2svp pop=NBORead  scf=tight

Single Point computation for reaction coordinate: -1.56591

0 1
1    1.522614    -0.301100    -0.000000
16    -0.706101    -0.674423    0.000000
7    -0.006156    0.777359    -0.000000
8    1.320882    0.686525    0.000000


$nbo bndidx $end

--Link1--
%NProcShared=4
%Mem=2GB
#P  PBEPBE/def2svp pop=NBORead  scf=tight

Single Point computation for reaction coordinate: -1.51367

0 1
1    1.511020    -0.306463    0.000000
16    -0.703982    -0.674177    0.000000
7    -0.007389    0.780867    -0.000000
8    1.318456    0.683299    -0.000000


$nbo bndidx $end

--Link1--
%NProcShared=4
%Mem=2GB
#P  PBEPBE/def2svp pop=NBORead  scf=tight

Single Point computation for reaction coordinate: -1.46144

0 1
1    1.498963    -0.311900    -0.000000
16    -0.701937    -0.674032    0.000000
7    -0.008406    0.784512    -0.000000
8    1.316017    0.680160    0.000000


$nbo bndidx $end

--Link1--
%NProcShared=4
%Mem=2GB
#P  PBEPBE/def2svp pop=NBORead  scf=tight

Single Point computation for reaction coordinate: -1.4092

0 1
1    1.486316    -0.317281    0.000000
16    -0.699973    -0.673989    0.000000
7    -0.009184    0.788273    -0.000000
8    1.313568    0.677121    -0.000000


$nbo bndidx $end

--Link1--
%NProcShared=4
%Mem=2GB
#P  PBEPBE/def2svp pop=NBORead  scf=tight

Single Point computation for reaction coordinate: -1.35697

0 1
1    1.472971    -0.322670    -0.000000
16    -0.698097    -0.674046    0.000000
7    -0.009702    0.792115    -0.000000
8    1.311111    0.674209    0.000000


$nbo bndidx $end

--Link1--
%NProcShared=4
%Mem=2GB
#P  PBEPBE/def2svp pop=NBORead  scf=tight

Single Point computation for reaction coordinate: -1.30474

0 1
1    1.458789    -0.328034    0.000000
16    -0.696314    -0.674196    0.000000
7    -0.009944    0.795995    -0.000000
8    1.308653    0.671451    -0.000000


$nbo bndidx $end

--Link1--
%NProcShared=4
%Mem=2GB
#P  PBEPBE/def2svp pop=NBORead  scf=tight

Single Point computation for reaction coordinate: -1.25252

0 1
1    1.443642    -0.333392    -0.000000
16    -0.694630    -0.674431    0.000000
7    -0.009903    0.799858    -0.000000
8    1.306204    0.668874    0.000000


$nbo bndidx $end

--Link1--
%NProcShared=4
%Mem=2GB
#P  PBEPBE/def2svp pop=NBORead  scf=tight

Single Point computation for reaction coordinate: -1.20029

0 1
1    1.427409    -0.338736    0.000000
16    -0.693048    -0.674738    0.000000
7    -0.009574    0.803647    -0.000000
8    1.303777    0.666508    -0.000000


$nbo bndidx $end

--Link1--
%NProcShared=4
%Mem=2GB
#P  PBEPBE/def2svp pop=NBORead  scf=tight

Single Point computation for reaction coordinate: -1.14807

0 1
1    1.410006    -0.344091    0.000000
16    -0.691571    -0.675102    0.000000
7    -0.008966    0.807297    -0.000000
8    1.301389    0.664378    -0.000000


$nbo bndidx $end

--Link1--
%NProcShared=4
%Mem=2GB
#P  PBEPBE/def2svp pop=NBORead  scf=tight

Single Point computation for reaction coordinate: -1.09585

0 1
1    1.391402    -0.349502    -0.000000
16    -0.690202    -0.675509    0.000000
7    -0.008093    0.810747    -0.000000
8    1.299059    0.662512    -0.000000


$nbo bndidx $end

--Link1--
%NProcShared=4
%Mem=2GB
#P  PBEPBE/def2svp pop=NBORead  scf=tight

Single Point computation for reaction coordinate: -1.04364

0 1
1    1.371643    -0.355103    -0.000000
16    -0.688941    -0.675943    0.000000
7    -0.006979    0.813944    -0.000000
8    1.296808    0.660933    -0.000000


$nbo bndidx $end

--Link1--
%NProcShared=4
%Mem=2GB
#P  PBEPBE/def2svp pop=NBORead  scf=tight

Single Point computation for reaction coordinate: -0.99143

0 1
1    1.350861    -0.361143    -0.000000
16    -0.687787    -0.676387    0.000000
7    -0.005659    0.816845    -0.000000
8    1.294656    0.659662    -0.000000


$nbo bndidx $end

--Link1--
%NProcShared=4
%Mem=2GB
#P  PBEPBE/def2svp pop=NBORead  scf=tight

Single Point computation for reaction coordinate: -0.93922

0 1
1    1.329281    -0.368055    -0.000000
16    -0.686739    -0.676830    0.000000
7    -0.004177    0.819424    -0.000000
8    1.292623    0.658724    -0.000000


$nbo bndidx $end

--Link1--
%NProcShared=4
%Mem=2GB
#P  PBEPBE/def2svp pop=NBORead  scf=tight

Single Point computation for reaction coordinate: -0.88702

0 1
1    1.307239    -0.376413    -0.000000
16    -0.685794    -0.677258    0.000000
7    -0.002589    0.821670    -0.000000
8    1.290731    0.658140    0.000000


$nbo bndidx $end

--Link1--
%NProcShared=4
%Mem=2GB
#P  PBEPBE/def2svp pop=NBORead  scf=tight

Single Point computation for reaction coordinate: -0.83482

0 1
1    1.285194    -0.386804    -0.000000
16    -0.684951    -0.677663    0.000000
7    -0.000957    0.823589    -0.000000
8    1.289005    0.657924    -0.000000


$nbo bndidx $end

--Link1--
%NProcShared=4
%Mem=2GB
#P  PBEPBE/def2svp pop=NBORead  scf=tight

Single Point computation for reaction coordinate: -0.78262

0 1
1    1.263637    -0.399497    -0.000000
16    -0.684205    -0.678038    0.000000
7    0.000654    0.825205    -0.000000
8    1.287461    0.658058    0.000000


$nbo bndidx $end

--Link1--
%NProcShared=4
%Mem=2GB
#P  PBEPBE/def2svp pop=NBORead  scf=tight

Single Point computation for reaction coordinate: -0.73041

0 1
1    1.242883    -0.414305    -0.000000
16    -0.683546    -0.678383    0.000000
7    0.002198    0.826563    -0.000000
8    1.286100    0.658489    -0.000000


$nbo bndidx $end

--Link1--
%NProcShared=4
%Mem=2GB
#P  PBEPBE/def2svp pop=NBORead  scf=tight

Single Point computation for reaction coordinate: -0.67819

0 1
1    1.223000    -0.430785    -0.000000
16    -0.682961    -0.678699    0.000000
7    0.003657    0.827718    -0.000000
8    1.284905    0.659149    0.000000


$nbo bndidx $end

--Link1--
%NProcShared=4
%Mem=2GB
#P  PBEPBE/def2svp pop=NBORead  scf=tight

Single Point computation for reaction coordinate: -0.62595

0 1
1    1.203887    -0.448478    -0.000000
16    -0.682433    -0.678994    0.000000
7    0.005031    0.828721    -0.000000
8    1.283852    0.659976    0.000000


$nbo bndidx $end

--Link1--
%NProcShared=4
%Mem=2GB
#P  PBEPBE/def2svp pop=NBORead  scf=tight

Single Point computation for reaction coordinate: -0.57371

0 1
1    1.185378    -0.467013    -0.000000
16    -0.681951    -0.679274    0.000000
7    0.006329    0.829615    -0.000000
8    1.282917    0.660920    0.000000


$nbo bndidx $end

--Link1--
%NProcShared=4
%Mem=2GB
#P  PBEPBE/def2svp pop=NBORead  scf=tight

Single Point computation for reaction coordinate: -0.52147

0 1
1    1.167299    -0.486109    -0.000000
16    -0.681502    -0.679543    0.000000
7    0.007562    0.830430    -0.000000
8    1.282079    0.661948    0.000000


$nbo bndidx $end

--Link1--
%NProcShared=4
%Mem=2GB
#P  PBEPBE/def2svp pop=NBORead  scf=tight

Single Point computation for reaction coordinate: -0.46923

0 1
1    1.149497    -0.505564    -0.000000
16    -0.681078    -0.679807    0.000000
7    0.008738    0.831192    -0.000000
8    1.281323    0.663033    0.000000


$nbo bndidx $end

--Link1--
%NProcShared=4
%Mem=2GB
#P  PBEPBE/def2svp pop=NBORead  scf=tight

Single Point computation for reaction coordinate: -0.41699

0 1
1    1.131853    -0.525241    -0.000000
16    -0.680673    -0.680068    0.000000
7    0.009866    0.831918    -0.000000
8    1.280639    0.664159    0.000000


$nbo bndidx $end

--Link1--
%NProcShared=4
%Mem=2GB
#P  PBEPBE/def2svp pop=NBORead  scf=tight

Single Point computation for reaction coordinate: -0.36475

0 1
1    1.114273    -0.545040    -0.000000
16    -0.680282    -0.680329    0.000000
7    0.010946    0.832623    -0.000000
8    1.280019    0.665312    0.000000


$nbo bndidx $end

--Link1--
%NProcShared=4
%Mem=2GB
#P  PBEPBE/def2svp pop=NBORead  scf=tight

Single Point computation for reaction coordinate: -0.3125

0 1
1    1.096679    -0.564886    -0.000000
16    -0.679902    -0.680593    0.000000
7    0.011978    0.833319    -0.000000
8    1.279464    0.666481    0.000000


$nbo bndidx $end

--Link1--
%NProcShared=4
%Mem=2GB
#P  PBEPBE/def2svp pop=NBORead  scf=tight

Single Point computation for reaction coordinate: -0.26026

0 1
1    1.079009    -0.584728    -0.000000
16    -0.679528    -0.680863    0.000000
7    0.012951    0.834019    -0.000000
8    1.278980    0.667658    0.000000


$nbo bndidx $end

--Link1--
%NProcShared=4
%Mem=2GB
#P  PBEPBE/def2svp pop=NBORead  scf=tight

Single Point computation for reaction coordinate: -0.20802

0 1
1    1.061216    -0.604539    -0.000000
16    -0.679159    -0.681140    0.000000
7    0.013838    0.834735    -0.000000
8    1.278586    0.668832    0.000000


$nbo bndidx $end

--Link1--
%NProcShared=4
%Mem=2GB
#P  PBEPBE/def2svp pop=NBORead  scf=tight

Single Point computation for reaction coordinate: -0.15579

0 1
1    1.043240    -0.624264    -0.000000
16    -0.678794    -0.681426    0.000000
7    0.014701    0.835466    -0.000000
8    1.278235    0.670010    0.000000


$nbo bndidx $end

--Link1--
%NProcShared=4
%Mem=2GB
#P  PBEPBE/def2svp pop=NBORead  scf=tight

Single Point computation for reaction coordinate: -0.10358

0 1
1    1.025032    -0.643930    -0.000000
16    -0.678403    -0.681718    0.000000
7    0.014740    0.836370    -0.000000
8    1.278563    0.671035    0.000000


$nbo bndidx $end

--Link1--
%NProcShared=4
%Mem=2GB
#P  PBEPBE/def2svp pop=NBORead  scf=tight

Single Point computation for reaction coordinate: -0.05148

0 1
1    1.006705    -0.663496    -0.000000
16    -0.677998    -0.682021    0.000000
7    0.013939    0.837447    -0.000000
8    1.279608    0.671931    0.000000


$nbo bndidx $end

--Link1--
%NProcShared=4
%Mem=2GB
#P  PBEPBE/def2svp pop=NBORead  scf=tight

Single Point computation for reaction coordinate: 0.0

0 1
1    0.973640    -0.671980    0.000000
16    -0.692830    -0.671470    0.000000
7    0.000000    0.848970    0.000000
8    1.263950    0.684090    0.000000


$nbo bndidx $end

--Link1--
%NProcShared=4
%Mem=2GB
#P  PBEPBE/def2svp pop=NBORead  scf=tight

Single Point computation for reaction coordinate: 0.04721

0 1
1    0.975432    -0.697532    0.000000
16    -0.677556    -0.682594    -0.000000
7    0.018127    0.838155    0.000000
8    1.277030    0.674602    -0.000000


$nbo bndidx $end

--Link1--
%NProcShared=4
%Mem=2GB
#P  PBEPBE/def2svp pop=NBORead  scf=tight

Single Point computation for reaction coordinate: 0.09865

0 1
1    0.959850    -0.715405    0.000000
16    -0.677408    -0.682904    -0.000000
7    0.020802    0.838356    0.000000
8    1.275373    0.676169    -0.000000


$nbo bndidx $end

--Link1--
%NProcShared=4
%Mem=2GB
#P  PBEPBE/def2svp pop=NBORead  scf=tight

Single Point computation for reaction coordinate: 0.15086

0 1
1    0.942434    -0.734172    0.000000
16    -0.677193    -0.683261    -0.000000
7    0.022480    0.838889    0.000000
8    1.274571    0.677599    -0.000000


$nbo bndidx $end

--Link1--
%NProcShared=4
%Mem=2GB
#P  PBEPBE/def2svp pop=NBORead  scf=tight

Single Point computation for reaction coordinate: 0.2031

0 1
1    0.924503    -0.753041    0.000000
16    -0.676964    -0.683640    0.000000
7    0.023978    0.839519    0.000000
8    1.273932    0.678994    -0.000000


$nbo bndidx $end

--Link1--
%NProcShared=4
%Mem=2GB
#P  PBEPBE/def2svp pop=NBORead  scf=tight

Single Point computation for reaction coordinate: 0.25534

0 1
1    0.906382    -0.771830    0.000000
16    -0.676737    -0.684040    -0.000000
7    0.025406    0.840210    0.000000
8    1.273370    0.680373    -0.000000


$nbo bndidx $end

--Link1--
%NProcShared=4
%Mem=2GB
#P  PBEPBE/def2svp pop=NBORead  scf=tight

Single Point computation for reaction coordinate: 0.30758

0 1
1    0.888177    -0.790539    0.000000
16    -0.676520    -0.684461    0.000000
7    0.026820    0.840946    0.000000
8    1.272845    0.681750    0.000000


$nbo bndidx $end

--Link1--
%NProcShared=4
%Mem=2GB
#P  PBEPBE/def2svp pop=NBORead  scf=tight

Single Point computation for reaction coordinate: 0.35982

0 1
1    0.869956    -0.809190    0.000000
16    -0.676318    -0.684906    0.000000
7    0.028244    0.841724    0.000000
8    1.272343    0.683133    -0.000000


$nbo bndidx $end

--Link1--
%NProcShared=4
%Mem=2GB
#P  PBEPBE/def2svp pop=NBORead  scf=tight

Single Point computation for reaction coordinate: 0.41207

0 1
1    0.851781    -0.827812    0.000000
16    -0.676135    -0.685375    0.000000
7    0.029693    0.842541    0.000000
8    1.271854    0.684529    -0.000000


$nbo bndidx $end

--Link1--
%NProcShared=4
%Mem=2GB
#P  PBEPBE/def2svp pop=NBORead  scf=tight

Single Point computation for reaction coordinate: 0.46431

0 1
1    0.833712    -0.846439    0.000000
16    -0.675977    -0.685871    0.000000
7    0.031179    0.843395    0.000000
8    1.271374    0.685946    -0.000000


$nbo bndidx $end

--Link1--
%NProcShared=4
%Mem=2GB
#P  PBEPBE/def2svp pop=NBORead  scf=tight

Single Point computation for reaction coordinate: 0.51655

0 1
1    0.815811    -0.865109    0.000000
16    -0.675847    -0.686394    0.000000
7    0.032711    0.844287    0.000000
8    1.270902    0.687387    -0.000000


$nbo bndidx $end

--Link1--
%NProcShared=4
%Mem=2GB
#P  PBEPBE/def2svp pop=NBORead  scf=tight

Single Point computation for reaction coordinate: 0.5688

0 1
1    0.798152    -0.883865    0.000000
16    -0.675751    -0.686947    0.000000
7    0.034295    0.845217    0.000000
8    1.270436    0.688860    -0.000000


$nbo bndidx $end

--Link1--
%NProcShared=4
%Mem=2GB
#P  PBEPBE/def2svp pop=NBORead  scf=tight

Single Point computation for reaction coordinate: 0.62104

0 1
1    0.780818    -0.902755    0.000000
16    -0.675695    -0.687532    0.000000
7    0.035939    0.846185    0.000000
8    1.269977    0.690372    -0.000000


$nbo bndidx $end

--Link1--
%NProcShared=4
%Mem=2GB
#P  PBEPBE/def2svp pop=NBORead  scf=tight

Single Point computation for reaction coordinate: 0.67328

0 1
1    0.763903    -0.921827    0.000000
16    -0.675686    -0.688150    0.000000
7    0.037650    0.847190    0.000000
8    1.269527    0.691929    -0.000000


$nbo bndidx $end

--Link1--
%NProcShared=4
%Mem=2GB
#P  PBEPBE/def2svp pop=NBORead  scf=tight

Single Point computation for reaction coordinate: 0.72552

0 1
1    0.747504    -0.941125    0.000000
16    -0.675731    -0.688804    0.000000
7    0.039433    0.848232    0.000000
8    1.269089    0.693540    -0.000000


$nbo bndidx $end

--Link1--
%NProcShared=4
%Mem=2GB
#P  PBEPBE/def2svp pop=NBORead  scf=tight

Single Point computation for reaction coordinate: 0.77776

0 1
1    0.731715    -0.960683    0.000000
16    -0.675836    -0.689495    0.000000
7    0.041290    0.849309    0.000000
8    1.268668    0.695210    -0.000000


$nbo bndidx $end

--Link1--
%NProcShared=4
%Mem=2GB
#P  PBEPBE/def2svp pop=NBORead  scf=tight

Single Point computation for reaction coordinate: 0.83

0 1
1    0.716619    -0.980514    0.000000
16    -0.676009    -0.690224    0.000000
7    0.043224    0.850419    0.000000
8    1.268272    0.696946    -0.000000


$nbo bndidx $end

--Link1--
%NProcShared=4
%Mem=2GB
#P  PBEPBE/def2svp pop=NBORead  scf=tight

Single Point computation for reaction coordinate: 0.88224

0 1
1    0.702278    -1.000610    0.000000
16    -0.676256    -0.690994    0.000000
7    0.045234    0.851556    0.000000
8    1.267910    0.698755    -0.000000


$nbo bndidx $end

--Link1--
%NProcShared=4
%Mem=2GB
#P  PBEPBE/def2svp pop=NBORead  scf=tight

Single Point computation for reaction coordinate: 0.93448

0 1
1    0.688723    -1.020942    0.000000
16    -0.676582    -0.691805    0.000000
7    0.047316    0.852717    0.000000
8    1.267592    0.700641    -0.000000


$nbo bndidx $end

--Link1--
%NProcShared=4
%Mem=2GB
#P  PBEPBE/def2svp pop=NBORead  scf=tight

Single Point computation for reaction coordinate: 0.98672

0 1
1    0.675954    -1.041458    0.000000
16    -0.676990    -0.692658    0.000000
7    0.049464    0.853895    0.000000
8    1.267332    0.702608    0.000000


$nbo bndidx $end

--Link1--
%NProcShared=4
%Mem=2GB
#P  PBEPBE/def2svp pop=NBORead  scf=tight

Single Point computation for reaction coordinate: 1.03895

0 1
1    0.663932    -1.062088    0.000000
16    -0.677483    -0.693556    0.000000
7    0.051673    0.855084    0.000000
8    1.267142    0.704661    -0.000000


$nbo bndidx $end

--Link1--
%NProcShared=4
%Mem=2GB
#P  PBEPBE/def2svp pop=NBORead  scf=tight

Single Point computation for reaction coordinate: 1.09119

0 1
1    0.652589    -1.082750    0.000000
16    -0.678063    -0.694499    0.000000
7    0.053933    0.856277    0.000000
8    1.267037    0.706804    -0.000000


$nbo bndidx $end

--Link1--
%NProcShared=4
%Mem=2GB
#P  PBEPBE/def2svp pop=NBORead  scf=tight

Single Point computation for reaction coordinate: 1.14343

0 1
1    0.641833    -1.103355    0.000000
16    -0.678730    -0.695490    0.000000
7    0.056237    0.857469    0.000000
8    1.267031    0.709039    -0.000000


$nbo bndidx $end

--Link1--
%NProcShared=4
%Mem=2GB
#P  PBEPBE/def2svp pop=NBORead  scf=tight

Single Point computation for reaction coordinate: 1.19567

0 1
1    0.631567    -1.123810    0.000000
16    -0.679485    -0.696530    0.000000
7    0.058577    0.858654    0.000000
8    1.267138    0.711370    -0.000000


$nbo bndidx $end

--Link1--
%NProcShared=4
%Mem=2GB
#P  PBEPBE/def2svp pop=NBORead  scf=tight

Single Point computation for reaction coordinate: 1.24791

0 1
1    0.621694    -1.144024    0.000000
16    -0.680328    -0.697622    0.000000
7    0.060947    0.859825    0.000000
8    1.267371    0.713801    -0.000000


$nbo bndidx $end

--Link1--
%NProcShared=4
%Mem=2GB
#P  PBEPBE/def2svp pop=NBORead  scf=tight

Single Point computation for reaction coordinate: 1.30015

0 1
1    0.612130    -1.163905    0.000000
16    -0.681260    -0.698769    0.000000
7    0.063341    0.860978    0.000000
8    1.267740    0.716337    -0.000000


$nbo bndidx $end

--Link1--
%NProcShared=4
%Mem=2GB
#P  PBEPBE/def2svp pop=NBORead  scf=tight

Single Point computation for reaction coordinate: 1.35239

0 1
1    0.602809    -1.183365    0.000000
16    -0.682282    -0.699972    0.000000
7    0.065754    0.862108    0.000000
8    1.268257    0.718978    0.000000


$nbo bndidx $end

--Link1--
%NProcShared=4
%Mem=2GB
#P  PBEPBE/def2svp pop=NBORead  scf=tight

Single Point computation for reaction coordinate: 1.40463

0 1
1    0.593686    -1.202321    0.000000
16    -0.683394    -0.701233    0.000000
7    0.068184    0.863211    0.000000
8    1.268926    0.721728    -0.000000


$nbo bndidx $end

--Link1--
%NProcShared=4
%Mem=2GB
#P  PBEPBE/def2svp pop=NBORead  scf=tight

Single Point computation for reaction coordinate: 1.45686

0 1
1    0.584738    -1.220692    0.000000
16    -0.684596    -0.702553    0.000000
7    0.070628    0.864282    0.000000
8    1.269754    0.724586    -0.000000


$nbo bndidx $end

--Link1--
%NProcShared=4
%Mem=2GB
#P  PBEPBE/def2svp pop=NBORead  scf=tight

Single Point computation for reaction coordinate: 1.5091

0 1
1    0.575954    -1.238411    0.000000
16    -0.685888    -0.703932    0.000000
7    0.073085    0.865318    0.000000
8    1.270740    0.727552    -0.000000


$nbo bndidx $end

--Link1--
%NProcShared=4
%Mem=2GB
#P  PBEPBE/def2svp pop=NBORead  scf=tight

Single Point computation for reaction coordinate: 1.56134

0 1
1    0.567341    -1.255419    0.000000
16    -0.687269    -0.705369    0.000000
7    0.075554    0.866316    0.000000
8    1.271881    0.730622    -0.000000


$nbo bndidx $end

--Link1--
%NProcShared=4
%Mem=2GB
#P  PBEPBE/def2svp pop=NBORead  scf=tight

Single Point computation for reaction coordinate: 1.61357

0 1
1    0.558910    -1.271673    0.000000
16    -0.688736    -0.706861    0.000000
7    0.078036    0.867273    0.000000
8    1.273172    0.733790    0.000000


$nbo bndidx $end

--Link1--
%NProcShared=4
%Mem=2GB
#P  PBEPBE/def2svp pop=NBORead  scf=tight

Single Point computation for reaction coordinate: 1.66581

0 1
1    0.550677    -1.287142    0.000000
16    -0.690285    -0.708405    0.000000
7    0.080531    0.868188    0.000000
8    1.274602    0.737050    -0.000000


$nbo bndidx $end

--Link1--
%NProcShared=4
%Mem=2GB
#P  PBEPBE/def2svp pop=NBORead  scf=tight

Single Point computation for reaction coordinate: 1.71805

0 1
1    0.542658    -1.301815    0.000000
16    -0.691912    -0.709998    0.000000
7    0.083041    0.869063    0.000000
8    1.276162    0.740394    0.000000


$nbo bndidx $end

--Link1--
%NProcShared=4
%Mem=2GB
#P  PBEPBE/def2svp pop=NBORead  scf=tight

Single Point computation for reaction coordinate: 1.77029

0 1
1    0.534868    -1.315693    0.000000
16    -0.693610    -0.711637    0.000000
7    0.085566    0.869900    0.000000
8    1.277837    0.743811    -0.000000


$nbo bndidx $end

--Link1--
%NProcShared=4
%Mem=2GB
#P  PBEPBE/def2svp pop=NBORead  scf=tight

Single Point computation for reaction coordinate: 1.82253

0 1
1    0.527316    -1.328792    0.000000
16    -0.695375    -0.713317    0.000000
7    0.088108    0.870703    0.000000
8    1.279615    0.747292    -0.000000


$nbo bndidx $end

--Link1--
%NProcShared=4
%Mem=2GB
#P  PBEPBE/def2svp pop=NBORead  scf=tight

Single Point computation for reaction coordinate: 1.87477

0 1
1    0.520008    -1.341139    0.000000
16    -0.697200    -0.715036    0.000000
7    0.090668    0.871476    0.000000
8    1.281483    0.750828    0.000000


$nbo bndidx $end

--Link1--
%NProcShared=4
%Mem=2GB
#P  PBEPBE/def2svp pop=NBORead  scf=tight

Single Point computation for reaction coordinate: 1.92701

0 1
1    0.512943    -1.352771    0.000000
16    -0.699079    -0.716789    0.000000
7    0.093246    0.872227    0.000000
8    1.283426    0.754409    -0.000000


$nbo bndidx $end

--Link1--
%NProcShared=4
%Mem=2GB
#P  PBEPBE/def2svp pop=NBORead  scf=tight

Single Point computation for reaction coordinate: 1.97925

0 1
1    0.506117    -1.363735    0.000000
16    -0.701006    -0.718574    0.000000
7    0.095842    0.872962    0.000000
8    1.285435    0.758025    0.000000


$nbo bndidx $end

--Link1--
%NProcShared=4
%Mem=2GB
#P  PBEPBE/def2svp pop=NBORead  scf=tight

Single Point computation for reaction coordinate: 2.03149

0 1
1    0.499522    -1.374077    0.000000
16    -0.702974    -0.720389    0.000000
7    0.098455    0.873689    0.000000
8    1.287498    0.761668    0.000000


$nbo bndidx $end

--Link1--
%NProcShared=4
%Mem=2GB
#P  PBEPBE/def2svp pop=NBORead  scf=tight

Single Point computation for reaction coordinate: 2.08373

0 1
1    0.493146    -1.383850    0.000000
16    -0.704980    -0.722232    0.000000
7    0.101086    0.874417    0.000000
8    1.289605    0.765330    0.000000


$nbo bndidx $end

--Link1--
%NProcShared=4
%Mem=2GB
#P  PBEPBE/def2svp pop=NBORead  scf=tight

Single Point computation for reaction coordinate: 2.13598

0 1
1    0.486976    -1.393105    0.000000
16    -0.707018    -0.724101    0.000000
7    0.103734    0.875153    0.000000
8    1.291749    0.769004    0.000000


$nbo bndidx $end

--Link1--
%NProcShared=4
%Mem=2GB
#P  PBEPBE/def2svp pop=NBORead  scf=tight

Single Point computation for reaction coordinate: 2.18822

0 1
1    0.480998    -1.401890    0.000000
16    -0.709083    -0.725995    0.000000
7    0.106397    0.875905    0.000000
8    1.293923    0.772684    0.000000


$nbo bndidx $end

--Link1--
%NProcShared=4
%Mem=2GB
#P  PBEPBE/def2svp pop=NBORead  scf=tight

Single Point computation for reaction coordinate: 2.24046

0 1
1    0.475198    -1.410253    0.000000
16    -0.711173    -0.727912    0.000000
7    0.109075    0.876682    0.000000
8    1.296122    0.776364    0.000000


$nbo bndidx $end

--Link1--
%NProcShared=4
%Mem=2GB
#P  PBEPBE/def2svp pop=NBORead  scf=tight

Single Point computation for reaction coordinate: 2.29271

0 1
1    0.469562    -1.418237    0.000000
16    -0.713284    -0.729853    0.000000
7    0.111767    0.877490    0.000000
8    1.298338    0.780039    0.000000


$nbo bndidx $end

--Link1--
%NProcShared=4
%Mem=2GB
#P  PBEPBE/def2svp pop=NBORead  scf=tight

Single Point computation for reaction coordinate: 2.34495

0 1
1    0.464077    -1.425881    0.000000
16    -0.715412    -0.731817    0.000000
7    0.114473    0.878337    0.000000
8    1.300570    0.783704    0.000000


$nbo bndidx $end

--Link1--
%NProcShared=4
%Mem=2GB
#P  PBEPBE/def2svp pop=NBORead  scf=tight

Single Point computation for reaction coordinate: 2.3972

0 1
1    0.458730    -1.433219    0.000000
16    -0.717556    -0.733803    0.000000
7    0.117190    0.879228    0.000000
8    1.302813    0.787355    0.000000


$nbo bndidx $end

--Link1--
%NProcShared=4
%Mem=2GB
#P  PBEPBE/def2svp pop=NBORead  scf=tight

Single Point computation for reaction coordinate: 2.44944

0 1
1    0.453512    -1.440282    0.000000
16    -0.719713    -0.735811    0.000000
7    0.119919    0.880169    0.000000
8    1.305064    0.790989    0.000000


$nbo bndidx $end

--Link1--
%NProcShared=4
%Mem=2GB
#P  PBEPBE/def2svp pop=NBORead  scf=tight

Single Point computation for reaction coordinate: 2.50169

0 1
1    0.448412    -1.447098    0.000000
16    -0.721881    -0.737841    0.000000
7    0.122658    0.881165    0.000000
8    1.307321    0.794604    0.000000


$nbo bndidx $end

--Link1--
%NProcShared=4
%Mem=2GB
#P  PBEPBE/def2svp pop=NBORead  scf=tight

Single Point computation for reaction coordinate: 2.55393

0 1
1    0.443423    -1.453688    0.000000
16    -0.724059    -0.739892    0.000000
7    0.125406    0.882219    0.000000
8    1.309582    0.798195    0.000000


$nbo bndidx $end

--Link1--
%NProcShared=4
%Mem=2GB
#P  PBEPBE/def2svp pop=NBORead  scf=tight

Single Point computation for reaction coordinate: 2.60618

0 1
1    0.438539    -1.460071    0.000000
16    -0.726245    -0.741964    0.000000
7    0.128164    0.883336    0.000000
8    1.311845    0.801761    0.000000


$nbo bndidx $end


